p cnf 50 15
x 3 6 7 -9 -10 -11 -13 16 -18 20 22 -23 24 25 -26 -29 34 -35 -38 -41 42 43 -45 46 -47 48 -49 0
x 1 2 -6 7 8 11 -13 -14 15 -17 -18 20 22 -24 25 28 -29 -32 33 -34 37 38 39 44 -45 -48 50 0
x -1 -2 -3 -4 5 -11 -12 -13 17 -18 19 -22 25 26 27 -29 -31 -32 -33 34 -35 36 -38 -41 43 45 -46 -47 48 -49 0
x -1 3 -5 6 -8 9 -11 -14 -18 -20 -22 -24 26 -28 31 32 -37 38 -40 42 43 -44 45 46 50 0
x -3 -15 16 20 -21 22 23 -24 25 27 -29 -30 32 35 36 -37 40 41 42 0
x -1 -3 4 -5 -6 -8 -13 -15 -17 18 -19 23 -24 25 28 -31 -32 33 -34 35 -37 -38 40 42 44 -46 47 -49 50 0
x 1 -2 3 -6 -7 9 14 -16 19 -20 -25 26 -28 -29 31 -32 -35 36 37 -38 40 45 47 48 -49 50 0
x 1 4 -5 -7 9 10 -11 17 -19 -21 22 -24 25 26 -28 -29 32 -33 -34 35 -36 37 40 -41 -43 -44 47 -48 0
x -9 10 -11 -12 13 14 -16 17 18 21 -26 28 -31 33 36 -37 -39 40 43 -44 46 48 50 0
x -2 3 9 -10 -12 15 17 22 -23 -24 -25 26 -29 35 -36 -37 -39 -41 -42 -43 45 -46 -47 -48 50 0
x -1 -3 -8 -9 12 13 14 15 16 18 24 25 -27 28 -29 -32 -34 36 37 38 45 -50 0
x 3 5 -6 -7 -9 10 11 12 15 16 19 23 24 -26 -29 -31 32 33 35 36 -38 40 -41 42 47 50 0
x -1 -8 -13 15 -16 18 19 -21 23 25 -29 30 -32 -33 35 -36 37 -38 39 41 -42 48 49 50 0
x -1 10 -12 13 14 -18 -19 20 -22 23 25 26 -28 -34 38 -40 -41 -43 -44 -47 50 0
x -1 -8 9 -10 11 -12 13 -15 -18 -21 -23 -25 26 27 28 -29 30 38 -41 43 -48 -49 0
g -10